Welcome to the CBC MILP Solver 
Version: 2.10.12 
Build Date: Aug 20 2024 

command line - /opt/homebrew/bin/cbc computational_data/real_data/lp/iris_trial_011.lp seconds 10.0 solve solu computational_data/real_data/solutions/iris_trial_011.sol (default strategy 1)
seconds was changed from 1e+100 to 10
Continuous objective value is 6.18333 - 0.00 seconds
Cgl0003I 0 fixed, 0 tightened bounds, 43 strengthened rows, 4 substitutions
Cgl0003I 0 fixed, 0 tightened bounds, 42 strengthened rows, 0 substitutions
Cgl0003I 0 fixed, 0 tightened bounds, 42 strengthened rows, 0 substitutions
Cgl0003I 0 fixed, 0 tightened bounds, 26 strengthened rows, 0 substitutions
Cgl0003I 0 fixed, 0 tightened bounds, 16 strengthened rows, 0 substitutions
Cgl0003I 0 fixed, 0 tightened bounds, 10 strengthened rows, 0 substitutions
Cgl0003I 0 fixed, 0 tightened bounds, 6 strengthened rows, 0 substitutions
Cgl0003I 0 fixed, 0 tightened bounds, 2 strengthened rows, 0 substitutions
Cgl0003I 0 fixed, 0 tightened bounds, 2 strengthened rows, 0 substitutions
Cgl0004I processed model has 54 rows, 28 columns (28 integer (28 of which binary)) and 270 elements
Cutoff increment increased from 1e-05 to 0.9999
Cbc0038I Initial state - 28 integers unsatisfied sum - 4.85
Cbc0038I Pass   1: suminf.    4.85000 (28) obj. 6.85 iterations 0
Cbc0038I Pass   2: suminf.    0.00000 (0) obj. 8 iterations 27
Cbc0038I Solution found of 8
Cbc0038I Before mini branch and bound, 0 integers at bound fixed and 0 continuous
Cbc0038I Full problem 54 rows 28 columns, reduced to 52 rows 28 columns
Cbc0038I Mini branch and bound improved solution from 8 to 8 (0.00 seconds)
Cbc0038I Round again with cutoff of 6.98509
Cbc0038I Pass   3: suminf.    4.85000 (28) obj. 6.85 iterations 0
Cbc0038I Pass   4: suminf.    4.27080 (22) obj. 6.98509 iterations 11
Cbc0038I Pass   5: suminf.    4.21491 (22) obj. 6.98509 iterations 4
Cbc0038I Pass   6: suminf.    4.27080 (22) obj. 6.98509 iterations 4
Cbc0038I Pass   7: suminf.    4.21491 (22) obj. 6.98509 iterations 5
Cbc0038I Pass   8: suminf.    4.21491 (22) obj. 6.98509 iterations 10
Cbc0038I Pass   9: suminf.    4.21491 (22) obj. 6.98509 iterations 1
Cbc0038I Pass  10: suminf.    4.27080 (22) obj. 6.98509 iterations 8
Cbc0038I Pass  11: suminf.    4.21491 (22) obj. 6.98509 iterations 3
Cbc0038I Pass  12: suminf.    4.21491 (22) obj. 6.98509 iterations 2
Cbc0038I Pass  13: suminf.    4.21491 (22) obj. 6.98509 iterations 5
Cbc0038I Pass  14: suminf.    4.21491 (22) obj. 6.98509 iterations 1
Cbc0038I Pass  15: suminf.    4.27080 (22) obj. 6.98509 iterations 3
Cbc0038I Pass  16: suminf.    4.21491 (22) obj. 6.98509 iterations 2
Cbc0038I Pass  17: suminf.    4.21491 (22) obj. 6.98509 iterations 5
Cbc0038I Pass  18: suminf.    4.21491 (22) obj. 6.98509 iterations 1
Cbc0038I Pass  19: suminf.    4.21491 (22) obj. 6.98509 iterations 1
Cbc0038I Pass  20: suminf.    4.21491 (22) obj. 6.98509 iterations 1
Cbc0038I Pass  21: suminf.    4.21491 (22) obj. 6.98509 iterations 3
Cbc0038I Pass  22: suminf.    4.59443 (28) obj. 6.98509 iterations 4
Cbc0038I Pass  23: suminf.    4.59443 (28) obj. 6.98509 iterations 0
Cbc0038I Pass  24: suminf.    4.21491 (22) obj. 6.98509 iterations 7
Cbc0038I Pass  25: suminf.    4.21491 (22) obj. 6.98509 iterations 2
Cbc0038I Pass  26: suminf.    4.21491 (22) obj. 6.98509 iterations 10
Cbc0038I Pass  27: suminf.    4.21491 (22) obj. 6.98509 iterations 0
Cbc0038I Pass  28: suminf.    4.21491 (22) obj. 6.98509 iterations 4
Cbc0038I Pass  29: suminf.    4.21491 (22) obj. 6.98509 iterations 4
Cbc0038I Pass  30: suminf.    4.21491 (22) obj. 6.98509 iterations 2
Cbc0038I Pass  31: suminf.    4.21491 (22) obj. 6.98509 iterations 2
Cbc0038I Pass  32: suminf.    4.21491 (22) obj. 6.98509 iterations 1
Cbc0038I No solution found this major pass
Cbc0038I Before mini branch and bound, 0 integers at bound fixed and 0 continuous
Cbc0038I Full problem 54 rows 28 columns, reduced to 52 rows 28 columns
Cbc0038I Mini branch and bound did not improve solution (0.01 seconds)
Cbc0038I After 0.01 seconds - Feasibility pump exiting with objective of 8 - took 0.00 seconds
Cbc0012I Integer solution of 8 found by feasibility pump after 0 iterations and 0 nodes (0.01 seconds)
Cbc0031I 6 added rows had average density of 9.3333333
Cbc0013I At root node, 12 cuts changed objective from 6.85 to 8 in 1 passes
Cbc0014I Cut generator 0 (Probing) - 0 row cuts average 0.0 elements, 0 column cuts (0 active)  in 0.000 seconds - new frequency is -100
Cbc0014I Cut generator 1 (Gomory) - 6 row cuts average 9.3 elements, 0 column cuts (0 active)  in 0.000 seconds - new frequency is 1
Cbc0014I Cut generator 2 (Knapsack) - 0 row cuts average 0.0 elements, 0 column cuts (0 active)  in 0.000 seconds - new frequency is -100
Cbc0014I Cut generator 3 (Clique) - 0 row cuts average 0.0 elements, 0 column cuts (0 active)  in 0.000 seconds - new frequency is -100
Cbc0014I Cut generator 4 (MixedIntegerRounding2) - 0 row cuts average 0.0 elements, 0 column cuts (0 active)  in 0.000 seconds - new frequency is -100
Cbc0014I Cut generator 5 (FlowCover) - 0 row cuts average 0.0 elements, 0 column cuts (0 active)  in 0.000 seconds - new frequency is -100
Cbc0014I Cut generator 6 (TwoMirCuts) - 6 row cuts average 9.3 elements, 0 column cuts (0 active)  in 0.000 seconds - new frequency is -100
Cbc0001I Search completed - best objective 8, took 0 iterations and 0 nodes (0.01 seconds)
Cbc0035I Maximum depth 0, 0 variables fixed on reduced cost
Cuts at root node changed objective from 6.85 to 8
Probing was tried 1 times and created 0 cuts of which 0 were active after adding rounds of cuts (0.000 seconds)
Gomory was tried 1 times and created 6 cuts of which 0 were active after adding rounds of cuts (0.000 seconds)
Knapsack was tried 1 times and created 0 cuts of which 0 were active after adding rounds of cuts (0.000 seconds)
Clique was tried 1 times and created 0 cuts of which 0 were active after adding rounds of cuts (0.000 seconds)
MixedIntegerRounding2 was tried 1 times and created 0 cuts of which 0 were active after adding rounds of cuts (0.000 seconds)
FlowCover was tried 1 times and created 0 cuts of which 0 were active after adding rounds of cuts (0.000 seconds)
TwoMirCuts was tried 1 times and created 6 cuts of which 0 were active after adding rounds of cuts (0.000 seconds)
ZeroHalf was tried 1 times and created 0 cuts of which 0 were active after adding rounds of cuts (0.000 seconds)

Result - Optimal solution found

Objective value:                8.00000000
Enumerated nodes:               0
Total iterations:               0
Time (CPU seconds):             0.01
Time (Wallclock seconds):       0.01

Total time (CPU seconds):       0.01   (Wallclock seconds):       0.01

